p ds 20 5
1 2
1 3
1 4
1 10
1 11
1 13
1 14
1 16
1 17
1 19
2 3
2 5
2 6
2 7
2 8
2 9
2 12
2 18
2 19
2 20
3 5
3 6
3 8
3 12
3 13
3 14
3 15
3 16
3 19
3 20
4 5
4 6
4 11
4 12
4 13
4 14
4 16
4 18
5 6
5 8
5 9
5 11
5 12
5 15
5 16
5 17
5 20
6 7
6 8
6 10
6 13
6 14
6 15
6 17
6 18
6 20
7 8
7 9
7 10
7 11
7 12
7 13
7 15
7 16
7 18
8 9
8 10
8 11
8 13
8 18
8 19
9 12
9 14
9 15
9 16
9 18
9 20
10 11
10 13
10 14
10 17
10 19
10 20
11 14
11 17
11 19
11 20
12 15
13 14
13 15
13 16
13 17
13 19
13 20
14 19
14 20
16 18
16 20
17 19
17 20
